; benchmark generated from python API
(set-info :status unknown)
(declare-fun x_v0q0.i () Real)
(declare-fun x_v0q0.r () Real)
(declare-fun x_v0q1.i () Real)
(declare-fun x_v0q1.r () Real)
(declare-fun x_v0q2.i () Real)
(declare-fun x_v0q2.r () Real)
(declare-fun x_v0q3.i () Real)
(declare-fun x_v0q3.r () Real)
(declare-fun x_v0q4.i () Real)
(declare-fun x_v0q4.r () Real)
(declare-fun x_v0q5.i () Real)
(declare-fun x_v0q5.r () Real)
(declare-fun x_v0q6.i () Real)
(declare-fun x_v0q6.r () Real)
(declare-fun x_v0q7.i () Real)
(declare-fun x_v0q7.r () Real)
(declare-fun x_v1q0.i () Real)
(declare-fun x_v1q0.r () Real)
(declare-fun x_v1q1.i () Real)
(declare-fun x_v1q1.r () Real)
(declare-fun x_v1q2.i () Real)
(declare-fun x_v1q2.r () Real)
(declare-fun x_v1q3.i () Real)
(declare-fun x_v1q3.r () Real)
(declare-fun x_v1q4.i () Real)
(declare-fun x_v1q4.r () Real)
(declare-fun x_v1q5.i () Real)
(declare-fun x_v1q5.r () Real)
(declare-fun x_v1q6.i () Real)
(declare-fun x_v1q6.r () Real)
(declare-fun x_v1q7.i () Real)
(declare-fun x_v1q7.r () Real)
(declare-fun f (Int) Int)
(declare-fun x_v4q0.i () Real)
(declare-fun x_v4q0.r () Real)
(declare-fun x_v4q1.i () Real)
(declare-fun x_v4q1.r () Real)
(declare-fun x_v4q2.i () Real)
(declare-fun x_v4q2.r () Real)
(declare-fun x_v4q3.i () Real)
(declare-fun x_v4q3.r () Real)
(declare-fun x_v4q4.i () Real)
(declare-fun x_v4q4.r () Real)
(declare-fun x_v4q5.i () Real)
(declare-fun x_v4q5.r () Real)
(declare-fun x_v4q6.i () Real)
(declare-fun x_v4q6.r () Real)
(declare-fun x_v4q7.i () Real)
(declare-fun x_v4q7.r () Real)
(declare-fun x_v5q0.i () Real)
(declare-fun x_v5q0.r () Real)
(declare-fun x_v5q1.i () Real)
(declare-fun x_v5q1.r () Real)
(declare-fun x_v5q2.i () Real)
(declare-fun x_v5q2.r () Real)
(declare-fun x_v5q3.i () Real)
(declare-fun x_v5q3.r () Real)
(declare-fun x_v5q4.i () Real)
(declare-fun x_v5q4.r () Real)
(declare-fun x_v5q5.i () Real)
(declare-fun x_v5q5.r () Real)
(declare-fun x_v5q6.i () Real)
(declare-fun x_v5q6.r () Real)
(declare-fun x_v5q7.i () Real)
(declare-fun x_v5q7.r () Real)
(declare-fun Pr_x_v5_7 () Real)
(declare-fun Pr_x_v5_6 () Real)
(declare-fun Pr_x_v5_5 () Real)
(declare-fun Pr_x_v5_4 () Real)
(declare-fun Pr_x_v5_3 () Real)
(declare-fun Pr_x_v5_2 () Real)
(declare-fun Pr_x_v5_1 () Real)
(declare-fun Pr_x_v5_0 () Real)
(declare-fun Pr_x_v5_sum () Real)
(declare-fun meas_cert () Bool)
(declare-fun meas_x () Int)
(declare-fun x_v0c () Int)
(declare-fun fixed_bv_ret () Int)
(assert
 (and (= x_v0q0.r 1.0) (= 0.0 x_v0q0.i)))
(assert
 (and (= x_v0q1.r 0.0) (= 0.0 x_v0q1.i)))
(assert
 (and (= x_v0q2.r 0.0) (= 0.0 x_v0q2.i)))
(assert
 (and (= x_v0q3.r 0.0) (= 0.0 x_v0q3.i)))
(assert
 (and (= x_v0q4.r 0.0) (= 0.0 x_v0q4.i)))
(assert
 (and (= x_v0q5.r 0.0) (= 0.0 x_v0q5.i)))
(assert
 (and (= x_v0q6.r 0.0) (= 0.0 x_v0q6.i)))
(assert
 (and (= x_v0q7.r 0.0) (= 0.0 x_v0q7.i)))
(assert
 (let ((?x483 (+ (* (root-obj (+ (* 8 (^ x 2)) (- 1)) 2) x_v0q0.i) (* (root-obj (+ (* 8 (^ x 2)) (- 1)) 2) x_v0q1.i) (* (root-obj (+ (* 8 (^ x 2)) (- 1)) 2) x_v0q2.i) (* (root-obj (+ (* 8 (^ x 2)) (- 1)) 2) x_v0q3.i) (* (root-obj (+ (* 8 (^ x 2)) (- 1)) 2) x_v0q4.i) (* (root-obj (+ (* 8 (^ x 2)) (- 1)) 2) x_v0q5.i) (* (root-obj (+ (* 8 (^ x 2)) (- 1)) 2) x_v0q6.i) (* (root-obj (+ (* 8 (^ x 2)) (- 1)) 2) x_v0q7.i))))
 (let ((?x459 (+ (* (root-obj (+ (* 8 (^ x 2)) (- 1)) 2) x_v0q0.r) (* (root-obj (+ (* 8 (^ x 2)) (- 1)) 2) x_v0q1.r) (* (root-obj (+ (* 8 (^ x 2)) (- 1)) 2) x_v0q2.r) (* (root-obj (+ (* 8 (^ x 2)) (- 1)) 2) x_v0q3.r) (* (root-obj (+ (* 8 (^ x 2)) (- 1)) 2) x_v0q4.r) (* (root-obj (+ (* 8 (^ x 2)) (- 1)) 2) x_v0q5.r) (* (root-obj (+ (* 8 (^ x 2)) (- 1)) 2) x_v0q6.r) (* (root-obj (+ (* 8 (^ x 2)) (- 1)) 2) x_v0q7.r))))
 (and (= x_v1q0.r ?x459) (= x_v1q0.i ?x483)))))
(assert
 (let ((?x488 (+ (* (root-obj (+ (* 8 (^ x 2)) (- 1)) 2) x_v0q0.i) (* (root-obj (+ (* 8 (^ x 2)) (- 1)) 1) x_v0q1.i) (* (root-obj (+ (* 8 (^ x 2)) (- 1)) 2) x_v0q2.i) (* (root-obj (+ (* 8 (^ x 2)) (- 1)) 1) x_v0q3.i) (* (root-obj (+ (* 8 (^ x 2)) (- 1)) 2) x_v0q4.i) (* (root-obj (+ (* 8 (^ x 2)) (- 1)) 1) x_v0q5.i) (* (root-obj (+ (* 8 (^ x 2)) (- 1)) 2) x_v0q6.i) (* (root-obj (+ (* 8 (^ x 2)) (- 1)) 1) x_v0q7.i))))
 (let ((?x432 (+ (* (root-obj (+ (* 8 (^ x 2)) (- 1)) 2) x_v0q0.r) (* (root-obj (+ (* 8 (^ x 2)) (- 1)) 1) x_v0q1.r) (* (root-obj (+ (* 8 (^ x 2)) (- 1)) 2) x_v0q2.r) (* (root-obj (+ (* 8 (^ x 2)) (- 1)) 1) x_v0q3.r) (* (root-obj (+ (* 8 (^ x 2)) (- 1)) 2) x_v0q4.r) (* (root-obj (+ (* 8 (^ x 2)) (- 1)) 1) x_v0q5.r) (* (root-obj (+ (* 8 (^ x 2)) (- 1)) 2) x_v0q6.r) (* (root-obj (+ (* 8 (^ x 2)) (- 1)) 1) x_v0q7.r))))
 (and (= x_v1q1.r ?x432) (= x_v1q1.i ?x488)))))
(assert
 (let ((?x202 (+ (* (root-obj (+ (* 8 (^ x 2)) (- 1)) 2) x_v0q0.i) (* (root-obj (+ (* 8 (^ x 2)) (- 1)) 2) x_v0q1.i) (* (root-obj (+ (* 8 (^ x 2)) (- 1)) 1) x_v0q2.i) (* (root-obj (+ (* 8 (^ x 2)) (- 1)) 1) x_v0q3.i) (* (root-obj (+ (* 8 (^ x 2)) (- 1)) 2) x_v0q4.i) (* (root-obj (+ (* 8 (^ x 2)) (- 1)) 2) x_v0q5.i) (* (root-obj (+ (* 8 (^ x 2)) (- 1)) 1) x_v0q6.i) (* (root-obj (+ (* 8 (^ x 2)) (- 1)) 1) x_v0q7.i))))
 (let ((?x416 (+ (* (root-obj (+ (* 8 (^ x 2)) (- 1)) 2) x_v0q0.r) (* (root-obj (+ (* 8 (^ x 2)) (- 1)) 2) x_v0q1.r) (* (root-obj (+ (* 8 (^ x 2)) (- 1)) 1) x_v0q2.r) (* (root-obj (+ (* 8 (^ x 2)) (- 1)) 1) x_v0q3.r) (* (root-obj (+ (* 8 (^ x 2)) (- 1)) 2) x_v0q4.r) (* (root-obj (+ (* 8 (^ x 2)) (- 1)) 2) x_v0q5.r) (* (root-obj (+ (* 8 (^ x 2)) (- 1)) 1) x_v0q6.r) (* (root-obj (+ (* 8 (^ x 2)) (- 1)) 1) x_v0q7.r))))
 (and (= x_v1q2.r ?x416) (= x_v1q2.i ?x202)))))
(assert
 (let ((?x20 (+ (* (root-obj (+ (* 8 (^ x 2)) (- 1)) 2) x_v0q0.i) (* (root-obj (+ (* 8 (^ x 2)) (- 1)) 1) x_v0q1.i) (* (root-obj (+ (* 8 (^ x 2)) (- 1)) 1) x_v0q2.i) (* (root-obj (+ (* 8 (^ x 2)) (- 1)) 2) x_v0q3.i) (* (root-obj (+ (* 8 (^ x 2)) (- 1)) 2) x_v0q4.i) (* (root-obj (+ (* 8 (^ x 2)) (- 1)) 1) x_v0q5.i) (* (root-obj (+ (* 8 (^ x 2)) (- 1)) 1) x_v0q6.i) (* (root-obj (+ (* 8 (^ x 2)) (- 1)) 2) x_v0q7.i))))
 (let ((?x196 (+ (* (root-obj (+ (* 8 (^ x 2)) (- 1)) 2) x_v0q0.r) (* (root-obj (+ (* 8 (^ x 2)) (- 1)) 1) x_v0q1.r) (* (root-obj (+ (* 8 (^ x 2)) (- 1)) 1) x_v0q2.r) (* (root-obj (+ (* 8 (^ x 2)) (- 1)) 2) x_v0q3.r) (* (root-obj (+ (* 8 (^ x 2)) (- 1)) 2) x_v0q4.r) (* (root-obj (+ (* 8 (^ x 2)) (- 1)) 1) x_v0q5.r) (* (root-obj (+ (* 8 (^ x 2)) (- 1)) 1) x_v0q6.r) (* (root-obj (+ (* 8 (^ x 2)) (- 1)) 2) x_v0q7.r))))
 (and (= x_v1q3.r ?x196) (= x_v1q3.i ?x20)))))
(assert
 (let ((?x314 (+ (* (root-obj (+ (* 8 (^ x 2)) (- 1)) 2) x_v0q0.i) (* (root-obj (+ (* 8 (^ x 2)) (- 1)) 2) x_v0q1.i) (* (root-obj (+ (* 8 (^ x 2)) (- 1)) 2) x_v0q2.i) (* (root-obj (+ (* 8 (^ x 2)) (- 1)) 2) x_v0q3.i) (* (root-obj (+ (* 8 (^ x 2)) (- 1)) 1) x_v0q4.i) (* (root-obj (+ (* 8 (^ x 2)) (- 1)) 1) x_v0q5.i) (* (root-obj (+ (* 8 (^ x 2)) (- 1)) 1) x_v0q6.i) (* (root-obj (+ (* 8 (^ x 2)) (- 1)) 1) x_v0q7.i))))
 (let ((?x169 (+ (* (root-obj (+ (* 8 (^ x 2)) (- 1)) 2) x_v0q0.r) (* (root-obj (+ (* 8 (^ x 2)) (- 1)) 2) x_v0q1.r) (* (root-obj (+ (* 8 (^ x 2)) (- 1)) 2) x_v0q2.r) (* (root-obj (+ (* 8 (^ x 2)) (- 1)) 2) x_v0q3.r) (* (root-obj (+ (* 8 (^ x 2)) (- 1)) 1) x_v0q4.r) (* (root-obj (+ (* 8 (^ x 2)) (- 1)) 1) x_v0q5.r) (* (root-obj (+ (* 8 (^ x 2)) (- 1)) 1) x_v0q6.r) (* (root-obj (+ (* 8 (^ x 2)) (- 1)) 1) x_v0q7.r))))
 (and (= x_v1q4.r ?x169) (= x_v1q4.i ?x314)))))
(assert
 (let ((?x134 (+ (* (root-obj (+ (* 8 (^ x 2)) (- 1)) 2) x_v0q0.i) (* (root-obj (+ (* 8 (^ x 2)) (- 1)) 1) x_v0q1.i) (* (root-obj (+ (* 8 (^ x 2)) (- 1)) 2) x_v0q2.i) (* (root-obj (+ (* 8 (^ x 2)) (- 1)) 1) x_v0q3.i) (* (root-obj (+ (* 8 (^ x 2)) (- 1)) 1) x_v0q4.i) (* (root-obj (+ (* 8 (^ x 2)) (- 1)) 2) x_v0q5.i) (* (root-obj (+ (* 8 (^ x 2)) (- 1)) 1) x_v0q6.i) (* (root-obj (+ (* 8 (^ x 2)) (- 1)) 2) x_v0q7.i))))
 (let ((?x578 (+ (* (root-obj (+ (* 8 (^ x 2)) (- 1)) 2) x_v0q0.r) (* (root-obj (+ (* 8 (^ x 2)) (- 1)) 1) x_v0q1.r) (* (root-obj (+ (* 8 (^ x 2)) (- 1)) 2) x_v0q2.r) (* (root-obj (+ (* 8 (^ x 2)) (- 1)) 1) x_v0q3.r) (* (root-obj (+ (* 8 (^ x 2)) (- 1)) 1) x_v0q4.r) (* (root-obj (+ (* 8 (^ x 2)) (- 1)) 2) x_v0q5.r) (* (root-obj (+ (* 8 (^ x 2)) (- 1)) 1) x_v0q6.r) (* (root-obj (+ (* 8 (^ x 2)) (- 1)) 2) x_v0q7.r))))
 (and (= x_v1q5.r ?x578) (= x_v1q5.i ?x134)))))
(assert
 (let ((?x591 (+ (* (root-obj (+ (* 8 (^ x 2)) (- 1)) 2) x_v0q0.i) (* (root-obj (+ (* 8 (^ x 2)) (- 1)) 2) x_v0q1.i) (* (root-obj (+ (* 8 (^ x 2)) (- 1)) 1) x_v0q2.i) (* (root-obj (+ (* 8 (^ x 2)) (- 1)) 1) x_v0q3.i) (* (root-obj (+ (* 8 (^ x 2)) (- 1)) 1) x_v0q4.i) (* (root-obj (+ (* 8 (^ x 2)) (- 1)) 1) x_v0q5.i) (* (root-obj (+ (* 8 (^ x 2)) (- 1)) 2) x_v0q6.i) (* (root-obj (+ (* 8 (^ x 2)) (- 1)) 2) x_v0q7.i))))
 (let ((?x810 (+ (* (root-obj (+ (* 8 (^ x 2)) (- 1)) 2) x_v0q0.r) (* (root-obj (+ (* 8 (^ x 2)) (- 1)) 2) x_v0q1.r) (* (root-obj (+ (* 8 (^ x 2)) (- 1)) 1) x_v0q2.r) (* (root-obj (+ (* 8 (^ x 2)) (- 1)) 1) x_v0q3.r) (* (root-obj (+ (* 8 (^ x 2)) (- 1)) 1) x_v0q4.r) (* (root-obj (+ (* 8 (^ x 2)) (- 1)) 1) x_v0q5.r) (* (root-obj (+ (* 8 (^ x 2)) (- 1)) 2) x_v0q6.r) (* (root-obj (+ (* 8 (^ x 2)) (- 1)) 2) x_v0q7.r))))
 (and (= x_v1q6.r ?x810) (= x_v1q6.i ?x591)))))
(assert
 (let ((?x792 (+ (* (root-obj (+ (* 8 (^ x 2)) (- 1)) 2) x_v0q0.i) (* (root-obj (+ (* 8 (^ x 2)) (- 1)) 1) x_v0q1.i) (* (root-obj (+ (* 8 (^ x 2)) (- 1)) 1) x_v0q2.i) (* (root-obj (+ (* 8 (^ x 2)) (- 1)) 2) x_v0q3.i) (* (root-obj (+ (* 8 (^ x 2)) (- 1)) 1) x_v0q4.i) (* (root-obj (+ (* 8 (^ x 2)) (- 1)) 2) x_v0q5.i) (* (root-obj (+ (* 8 (^ x 2)) (- 1)) 2) x_v0q6.i) (* (root-obj (+ (* 8 (^ x 2)) (- 1)) 1) x_v0q7.i))))
 (let ((?x759 (+ (* (root-obj (+ (* 8 (^ x 2)) (- 1)) 2) x_v0q0.r) (* (root-obj (+ (* 8 (^ x 2)) (- 1)) 1) x_v0q1.r) (* (root-obj (+ (* 8 (^ x 2)) (- 1)) 1) x_v0q2.r) (* (root-obj (+ (* 8 (^ x 2)) (- 1)) 2) x_v0q3.r) (* (root-obj (+ (* 8 (^ x 2)) (- 1)) 1) x_v0q4.r) (* (root-obj (+ (* 8 (^ x 2)) (- 1)) 2) x_v0q5.r) (* (root-obj (+ (* 8 (^ x 2)) (- 1)) 2) x_v0q6.r) (* (root-obj (+ (* 8 (^ x 2)) (- 1)) 1) x_v0q7.r))))
 (and (= x_v1q7.r ?x759) (= x_v1q7.i ?x792)))))
(assert
 (let ((?x253 (+ 1.0 (* (- 2.0) (ite (= (f 0) 1) 1.0 0.0)))))
 (and (= x_v4q0.r (* x_v1q0.r ?x253)) (= x_v4q0.i (* x_v1q0.i ?x253)))))
(assert
 (let ((?x243 (+ 1.0 (* (- 2.0) (ite (= (f 1) 1) 1.0 0.0)))))
 (and (= x_v4q1.r (* x_v1q1.r ?x243)) (= x_v4q1.i (* x_v1q1.i ?x243)))))
(assert
 (let ((?x585 (+ 1.0 (* (- 2.0) (ite (= (f 2) 1) 1.0 0.0)))))
 (and (= x_v4q2.r (* x_v1q2.r ?x585)) (= x_v4q2.i (* x_v1q2.i ?x585)))))
(assert
 (let ((?x519 (+ 1.0 (* (- 2.0) (ite (= (f 3) 1) 1.0 0.0)))))
 (and (= x_v4q3.r (* x_v1q3.r ?x519)) (= x_v4q3.i (* x_v1q3.i ?x519)))))
(assert
 (let ((?x589 (+ 1.0 (* (- 2.0) (ite (= (f 4) 1) 1.0 0.0)))))
 (and (= x_v4q4.r (* x_v1q4.r ?x589)) (= x_v4q4.i (* x_v1q4.i ?x589)))))
(assert
 (let ((?x384 (+ 1.0 (* (- 2.0) (ite (= (f 5) 1) 1.0 0.0)))))
 (and (= x_v4q5.r (* x_v1q5.r ?x384)) (= x_v4q5.i (* x_v1q5.i ?x384)))))
(assert
 (let ((?x180 (+ 1.0 (* (- 2.0) (ite (= (f 6) 1) 1.0 0.0)))))
 (and (= x_v4q6.r (* x_v1q6.r ?x180)) (= x_v4q6.i (* x_v1q6.i ?x180)))))
(assert
 (let ((?x562 (+ 1.0 (* (- 2.0) (ite (= (f 7) 1) 1.0 0.0)))))
 (and (= x_v4q7.r (* x_v1q7.r ?x562)) (= x_v4q7.i (* x_v1q7.i ?x562)))))
(assert
 (let ((?x778 (+ (* (root-obj (+ (* 8 (^ x 2)) (- 1)) 2) x_v4q0.i) (* (root-obj (+ (* 8 (^ x 2)) (- 1)) 2) x_v4q1.i) (* (root-obj (+ (* 8 (^ x 2)) (- 1)) 2) x_v4q2.i) (* (root-obj (+ (* 8 (^ x 2)) (- 1)) 2) x_v4q3.i) (* (root-obj (+ (* 8 (^ x 2)) (- 1)) 2) x_v4q4.i) (* (root-obj (+ (* 8 (^ x 2)) (- 1)) 2) x_v4q5.i) (* (root-obj (+ (* 8 (^ x 2)) (- 1)) 2) x_v4q6.i) (* (root-obj (+ (* 8 (^ x 2)) (- 1)) 2) x_v4q7.i))))
 (let ((?x651 (+ (* (root-obj (+ (* 8 (^ x 2)) (- 1)) 2) x_v4q0.r) (* (root-obj (+ (* 8 (^ x 2)) (- 1)) 2) x_v4q1.r) (* (root-obj (+ (* 8 (^ x 2)) (- 1)) 2) x_v4q2.r) (* (root-obj (+ (* 8 (^ x 2)) (- 1)) 2) x_v4q3.r) (* (root-obj (+ (* 8 (^ x 2)) (- 1)) 2) x_v4q4.r) (* (root-obj (+ (* 8 (^ x 2)) (- 1)) 2) x_v4q5.r) (* (root-obj (+ (* 8 (^ x 2)) (- 1)) 2) x_v4q6.r) (* (root-obj (+ (* 8 (^ x 2)) (- 1)) 2) x_v4q7.r))))
 (and (= x_v5q0.r ?x651) (= x_v5q0.i ?x778)))))
(assert
 (let ((?x696 (+ (* (root-obj (+ (* 8 (^ x 2)) (- 1)) 2) x_v4q0.i) (* (root-obj (+ (* 8 (^ x 2)) (- 1)) 1) x_v4q1.i) (* (root-obj (+ (* 8 (^ x 2)) (- 1)) 2) x_v4q2.i) (* (root-obj (+ (* 8 (^ x 2)) (- 1)) 1) x_v4q3.i) (* (root-obj (+ (* 8 (^ x 2)) (- 1)) 2) x_v4q4.i) (* (root-obj (+ (* 8 (^ x 2)) (- 1)) 1) x_v4q5.i) (* (root-obj (+ (* 8 (^ x 2)) (- 1)) 2) x_v4q6.i) (* (root-obj (+ (* 8 (^ x 2)) (- 1)) 1) x_v4q7.i))))
 (let ((?x744 (+ (* (root-obj (+ (* 8 (^ x 2)) (- 1)) 2) x_v4q0.r) (* (root-obj (+ (* 8 (^ x 2)) (- 1)) 1) x_v4q1.r) (* (root-obj (+ (* 8 (^ x 2)) (- 1)) 2) x_v4q2.r) (* (root-obj (+ (* 8 (^ x 2)) (- 1)) 1) x_v4q3.r) (* (root-obj (+ (* 8 (^ x 2)) (- 1)) 2) x_v4q4.r) (* (root-obj (+ (* 8 (^ x 2)) (- 1)) 1) x_v4q5.r) (* (root-obj (+ (* 8 (^ x 2)) (- 1)) 2) x_v4q6.r) (* (root-obj (+ (* 8 (^ x 2)) (- 1)) 1) x_v4q7.r))))
 (and (= x_v5q1.r ?x744) (= x_v5q1.i ?x696)))))
(assert
 (let ((?x763 (+ (* (root-obj (+ (* 8 (^ x 2)) (- 1)) 2) x_v4q0.i) (* (root-obj (+ (* 8 (^ x 2)) (- 1)) 2) x_v4q1.i) (* (root-obj (+ (* 8 (^ x 2)) (- 1)) 1) x_v4q2.i) (* (root-obj (+ (* 8 (^ x 2)) (- 1)) 1) x_v4q3.i) (* (root-obj (+ (* 8 (^ x 2)) (- 1)) 2) x_v4q4.i) (* (root-obj (+ (* 8 (^ x 2)) (- 1)) 2) x_v4q5.i) (* (root-obj (+ (* 8 (^ x 2)) (- 1)) 1) x_v4q6.i) (* (root-obj (+ (* 8 (^ x 2)) (- 1)) 1) x_v4q7.i))))
 (let ((?x238 (+ (* (root-obj (+ (* 8 (^ x 2)) (- 1)) 2) x_v4q0.r) (* (root-obj (+ (* 8 (^ x 2)) (- 1)) 2) x_v4q1.r) (* (root-obj (+ (* 8 (^ x 2)) (- 1)) 1) x_v4q2.r) (* (root-obj (+ (* 8 (^ x 2)) (- 1)) 1) x_v4q3.r) (* (root-obj (+ (* 8 (^ x 2)) (- 1)) 2) x_v4q4.r) (* (root-obj (+ (* 8 (^ x 2)) (- 1)) 2) x_v4q5.r) (* (root-obj (+ (* 8 (^ x 2)) (- 1)) 1) x_v4q6.r) (* (root-obj (+ (* 8 (^ x 2)) (- 1)) 1) x_v4q7.r))))
 (and (= x_v5q2.r ?x238) (= x_v5q2.i ?x763)))))
(assert
 (let ((?x149 (+ (* (root-obj (+ (* 8 (^ x 2)) (- 1)) 2) x_v4q0.i) (* (root-obj (+ (* 8 (^ x 2)) (- 1)) 1) x_v4q1.i) (* (root-obj (+ (* 8 (^ x 2)) (- 1)) 1) x_v4q2.i) (* (root-obj (+ (* 8 (^ x 2)) (- 1)) 2) x_v4q3.i) (* (root-obj (+ (* 8 (^ x 2)) (- 1)) 2) x_v4q4.i) (* (root-obj (+ (* 8 (^ x 2)) (- 1)) 1) x_v4q5.i) (* (root-obj (+ (* 8 (^ x 2)) (- 1)) 1) x_v4q6.i) (* (root-obj (+ (* 8 (^ x 2)) (- 1)) 2) x_v4q7.i))))
 (let ((?x576 (+ (* (root-obj (+ (* 8 (^ x 2)) (- 1)) 2) x_v4q0.r) (* (root-obj (+ (* 8 (^ x 2)) (- 1)) 1) x_v4q1.r) (* (root-obj (+ (* 8 (^ x 2)) (- 1)) 1) x_v4q2.r) (* (root-obj (+ (* 8 (^ x 2)) (- 1)) 2) x_v4q3.r) (* (root-obj (+ (* 8 (^ x 2)) (- 1)) 2) x_v4q4.r) (* (root-obj (+ (* 8 (^ x 2)) (- 1)) 1) x_v4q5.r) (* (root-obj (+ (* 8 (^ x 2)) (- 1)) 1) x_v4q6.r) (* (root-obj (+ (* 8 (^ x 2)) (- 1)) 2) x_v4q7.r))))
 (and (= x_v5q3.r ?x576) (= x_v5q3.i ?x149)))))
(assert
 (let ((?x289 (+ (* (root-obj (+ (* 8 (^ x 2)) (- 1)) 2) x_v4q0.i) (* (root-obj (+ (* 8 (^ x 2)) (- 1)) 2) x_v4q1.i) (* (root-obj (+ (* 8 (^ x 2)) (- 1)) 2) x_v4q2.i) (* (root-obj (+ (* 8 (^ x 2)) (- 1)) 2) x_v4q3.i) (* (root-obj (+ (* 8 (^ x 2)) (- 1)) 1) x_v4q4.i) (* (root-obj (+ (* 8 (^ x 2)) (- 1)) 1) x_v4q5.i) (* (root-obj (+ (* 8 (^ x 2)) (- 1)) 1) x_v4q6.i) (* (root-obj (+ (* 8 (^ x 2)) (- 1)) 1) x_v4q7.i))))
 (let ((?x573 (+ (* (root-obj (+ (* 8 (^ x 2)) (- 1)) 2) x_v4q0.r) (* (root-obj (+ (* 8 (^ x 2)) (- 1)) 2) x_v4q1.r) (* (root-obj (+ (* 8 (^ x 2)) (- 1)) 2) x_v4q2.r) (* (root-obj (+ (* 8 (^ x 2)) (- 1)) 2) x_v4q3.r) (* (root-obj (+ (* 8 (^ x 2)) (- 1)) 1) x_v4q4.r) (* (root-obj (+ (* 8 (^ x 2)) (- 1)) 1) x_v4q5.r) (* (root-obj (+ (* 8 (^ x 2)) (- 1)) 1) x_v4q6.r) (* (root-obj (+ (* 8 (^ x 2)) (- 1)) 1) x_v4q7.r))))
 (and (= x_v5q4.r ?x573) (= x_v5q4.i ?x289)))))
(assert
 (let ((?x123 (+ (* (root-obj (+ (* 8 (^ x 2)) (- 1)) 2) x_v4q0.i) (* (root-obj (+ (* 8 (^ x 2)) (- 1)) 1) x_v4q1.i) (* (root-obj (+ (* 8 (^ x 2)) (- 1)) 2) x_v4q2.i) (* (root-obj (+ (* 8 (^ x 2)) (- 1)) 1) x_v4q3.i) (* (root-obj (+ (* 8 (^ x 2)) (- 1)) 1) x_v4q4.i) (* (root-obj (+ (* 8 (^ x 2)) (- 1)) 2) x_v4q5.i) (* (root-obj (+ (* 8 (^ x 2)) (- 1)) 1) x_v4q6.i) (* (root-obj (+ (* 8 (^ x 2)) (- 1)) 2) x_v4q7.i))))
 (let ((?x572 (+ (* (root-obj (+ (* 8 (^ x 2)) (- 1)) 2) x_v4q0.r) (* (root-obj (+ (* 8 (^ x 2)) (- 1)) 1) x_v4q1.r) (* (root-obj (+ (* 8 (^ x 2)) (- 1)) 2) x_v4q2.r) (* (root-obj (+ (* 8 (^ x 2)) (- 1)) 1) x_v4q3.r) (* (root-obj (+ (* 8 (^ x 2)) (- 1)) 1) x_v4q4.r) (* (root-obj (+ (* 8 (^ x 2)) (- 1)) 2) x_v4q5.r) (* (root-obj (+ (* 8 (^ x 2)) (- 1)) 1) x_v4q6.r) (* (root-obj (+ (* 8 (^ x 2)) (- 1)) 2) x_v4q7.r))))
 (and (= x_v5q5.r ?x572) (= x_v5q5.i ?x123)))))
(assert
 (let ((?x775 (+ (* (root-obj (+ (* 8 (^ x 2)) (- 1)) 2) x_v4q0.i) (* (root-obj (+ (* 8 (^ x 2)) (- 1)) 2) x_v4q1.i) (* (root-obj (+ (* 8 (^ x 2)) (- 1)) 1) x_v4q2.i) (* (root-obj (+ (* 8 (^ x 2)) (- 1)) 1) x_v4q3.i) (* (root-obj (+ (* 8 (^ x 2)) (- 1)) 1) x_v4q4.i) (* (root-obj (+ (* 8 (^ x 2)) (- 1)) 1) x_v4q5.i) (* (root-obj (+ (* 8 (^ x 2)) (- 1)) 2) x_v4q6.i) (* (root-obj (+ (* 8 (^ x 2)) (- 1)) 2) x_v4q7.i))))
 (let ((?x681 (+ (* (root-obj (+ (* 8 (^ x 2)) (- 1)) 2) x_v4q0.r) (* (root-obj (+ (* 8 (^ x 2)) (- 1)) 2) x_v4q1.r) (* (root-obj (+ (* 8 (^ x 2)) (- 1)) 1) x_v4q2.r) (* (root-obj (+ (* 8 (^ x 2)) (- 1)) 1) x_v4q3.r) (* (root-obj (+ (* 8 (^ x 2)) (- 1)) 1) x_v4q4.r) (* (root-obj (+ (* 8 (^ x 2)) (- 1)) 1) x_v4q5.r) (* (root-obj (+ (* 8 (^ x 2)) (- 1)) 2) x_v4q6.r) (* (root-obj (+ (* 8 (^ x 2)) (- 1)) 2) x_v4q7.r))))
 (and (= x_v5q6.r ?x681) (= x_v5q6.i ?x775)))))
(assert
 (let ((?x897 (+ (* (root-obj (+ (* 8 (^ x 2)) (- 1)) 2) x_v4q0.i) (* (root-obj (+ (* 8 (^ x 2)) (- 1)) 1) x_v4q1.i) (* (root-obj (+ (* 8 (^ x 2)) (- 1)) 1) x_v4q2.i) (* (root-obj (+ (* 8 (^ x 2)) (- 1)) 2) x_v4q3.i) (* (root-obj (+ (* 8 (^ x 2)) (- 1)) 1) x_v4q4.i) (* (root-obj (+ (* 8 (^ x 2)) (- 1)) 2) x_v4q5.i) (* (root-obj (+ (* 8 (^ x 2)) (- 1)) 2) x_v4q6.i) (* (root-obj (+ (* 8 (^ x 2)) (- 1)) 1) x_v4q7.i))))
 (let ((?x885 (+ (* (root-obj (+ (* 8 (^ x 2)) (- 1)) 2) x_v4q0.r) (* (root-obj (+ (* 8 (^ x 2)) (- 1)) 1) x_v4q1.r) (* (root-obj (+ (* 8 (^ x 2)) (- 1)) 1) x_v4q2.r) (* (root-obj (+ (* 8 (^ x 2)) (- 1)) 2) x_v4q3.r) (* (root-obj (+ (* 8 (^ x 2)) (- 1)) 1) x_v4q4.r) (* (root-obj (+ (* 8 (^ x 2)) (- 1)) 2) x_v4q5.r) (* (root-obj (+ (* 8 (^ x 2)) (- 1)) 2) x_v4q6.r) (* (root-obj (+ (* 8 (^ x 2)) (- 1)) 1) x_v4q7.r))))
 (and (= x_v5q7.r ?x885) (= x_v5q7.i ?x897)))))
(assert
 (and (and (<= Pr_x_v5_0 1.0) (>= Pr_x_v5_0 0.0)) (and (<= Pr_x_v5_1 1.0) (>= Pr_x_v5_1 0.0)) (and (<= Pr_x_v5_2 1.0) (>= Pr_x_v5_2 0.0)) (and (<= Pr_x_v5_3 1.0) (>= Pr_x_v5_3 0.0)) (and (<= Pr_x_v5_4 1.0) (>= Pr_x_v5_4 0.0)) (and (<= Pr_x_v5_5 1.0) (>= Pr_x_v5_5 0.0)) (and (<= Pr_x_v5_6 1.0) (>= Pr_x_v5_6 0.0)) (and (<= Pr_x_v5_7 1.0) (>= Pr_x_v5_7 0.0))))
(assert
 (let ((?x449 (+ Pr_x_v5_0 Pr_x_v5_1 Pr_x_v5_2 Pr_x_v5_3 Pr_x_v5_4 Pr_x_v5_5 Pr_x_v5_6 Pr_x_v5_7)))
 (= Pr_x_v5_sum ?x449)))
(assert
 (= Pr_x_v5_sum 1.0))
(assert
 (= Pr_x_v5_0 (+ (+ (^ x_v5q0.r 2.0) (^ x_v5q0.i 2.0)))))
(assert
 (= Pr_x_v5_1 (+ (+ (^ x_v5q1.r 2.0) (^ x_v5q1.i 2.0)))))
(assert
 (= Pr_x_v5_2 (+ (+ (^ x_v5q2.r 2.0) (^ x_v5q2.i 2.0)))))
(assert
 (= Pr_x_v5_3 (+ (+ (^ x_v5q3.r 2.0) (^ x_v5q3.i 2.0)))))
(assert
 (= Pr_x_v5_4 (+ (+ (^ x_v5q4.r 2.0) (^ x_v5q4.i 2.0)))))
(assert
 (= Pr_x_v5_5 (+ (+ (^ x_v5q5.r 2.0) (^ x_v5q5.i 2.0)))))
(assert
 (= Pr_x_v5_6 (+ (+ (^ x_v5q6.r 2.0) (^ x_v5q6.i 2.0)))))
(assert
 (= Pr_x_v5_7 (+ (+ (^ x_v5q7.r 2.0) (^ x_v5q7.i 2.0)))))
(assert
 (let (($x339 (= Pr_x_v5_7 1.0)))
 (let (($x364 (= Pr_x_v5_6 1.0)))
 (let (($x182 (= Pr_x_v5_5 1.0)))
 (let (($x340 (= Pr_x_v5_4 1.0)))
 (let (($x637 (= Pr_x_v5_3 1.0)))
 (let (($x379 (= Pr_x_v5_2 1.0)))
 (let (($x634 (= Pr_x_v5_1 1.0)))
 (let (($x342 (= Pr_x_v5_0 1.0)))
 (let (($x91 (or $x342 $x634 $x379 $x637 $x340 $x182 $x364 $x339)))
 (let (($x371 (= meas_cert true)))
 (and (=> $x91 $x371) (=> $x371 $x91)))))))))))))
(assert
 (and (=> (= Pr_x_v5_0 1.0) (= meas_x 0)) (=> (= meas_x 0) (= Pr_x_v5_0 1.0))))
(assert
 (and (=> (= Pr_x_v5_1 1.0) (= meas_x 1)) (=> (= meas_x 1) (= Pr_x_v5_1 1.0))))
(assert
 (and (=> (= Pr_x_v5_2 1.0) (= meas_x 2)) (=> (= meas_x 2) (= Pr_x_v5_2 1.0))))
(assert
 (and (=> (= Pr_x_v5_3 1.0) (= meas_x 3)) (=> (= meas_x 3) (= Pr_x_v5_3 1.0))))
(assert
 (and (=> (= Pr_x_v5_4 1.0) (= meas_x 4)) (=> (= meas_x 4) (= Pr_x_v5_4 1.0))))
(assert
 (and (=> (= Pr_x_v5_5 1.0) (= meas_x 5)) (=> (= meas_x 5) (= Pr_x_v5_5 1.0))))
(assert
 (and (=> (= Pr_x_v5_6 1.0) (= meas_x 6)) (=> (= meas_x 6) (= Pr_x_v5_6 1.0))))
(assert
 (and (=> (= Pr_x_v5_7 1.0) (= meas_x 7)) (=> (= meas_x 7) (= Pr_x_v5_7 1.0))))
(assert
 (=> (= Pr_x_v5_0 0.0) (and (distinct meas_x 0) true)))
(assert
 (=> (= Pr_x_v5_1 0.0) (and (distinct meas_x 1) true)))
(assert
 (=> (= Pr_x_v5_2 0.0) (and (distinct meas_x 2) true)))
(assert
 (=> (= Pr_x_v5_3 0.0) (and (distinct meas_x 3) true)))
(assert
 (=> (= Pr_x_v5_4 0.0) (and (distinct meas_x 4) true)))
(assert
 (=> (= Pr_x_v5_5 0.0) (and (distinct meas_x 5) true)))
(assert
 (=> (= Pr_x_v5_6 0.0) (and (distinct meas_x 6) true)))
(assert
 (=> (= Pr_x_v5_7 0.0) (and (distinct meas_x 7) true)))
(assert
 (= x_v0c meas_x))
(assert
 (= fixed_bv_ret x_v0c))
(check-sat)
